(declare-const in0 Int)
(declare-const in2 Int)
(declare-const in1 Int)
(declare-const in4 Int)
(declare-const in3 Int)
(declare-const in6 Int)
(declare-const in5 Int)
(declare-const in8 Int)
(declare-const in7 Int)
(declare-const in11 Int)
(declare-const in10 Int)
(declare-const in9 Int)
(declare-const in13 Int)
(declare-const in12 Int)
(declare-const in15 Int)
(declare-const in14 Int)

(assert (and (and (and (and (and (and (and (and (and (and (and (and (and (and (and (and (and (and (and (and (and (and (and (and (and (and (and (and (and (and (and (and (and (and (and (and (and (and (and (and (and (and (and (and (and (and (and (and (and (and (and (and (and (and (and (and (and (and (and (and (and (and (and (and (and (and (and (and (and (and (and (and (and (and (and (and (and (and (and (not ( = in0 1))  ( =  ( mod  in0 2) 0)) (not ( = ( div  in0 2) 1)))  ( =  ( mod  ( div  in0 2) 2) 0)) (not ( = ( div  ( div  in0 2) 2) 1))) (not ( = in1 1)))  ( =  ( mod  in1 2) 0)) (not ( = ( div  in1 2) 1)))  ( =  ( mod  ( div  in1 2) 2) 0)) (not ( = ( div  ( div  in1 2) 2) 1))) (not ( = in2 1)))  ( =  ( mod  in2 2) 0)) (not ( = ( div  in2 2) 1)))  ( =  ( mod  ( div  in2 2) 2) 0)) (not ( = ( div  ( div  in2 2) 2) 1))) (not ( = in3 1)))  ( =  ( mod  in3 2) 0)) (not ( = ( div  in3 2) 1)))  ( =  ( mod  ( div  in3 2) 2) 0)) (not ( = ( div  ( div  in3 2) 2) 1))) (not ( = in4 1)))  ( =  ( mod  in4 2) 0)) (not ( = ( div  in4 2) 1)))  ( =  ( mod  ( div  in4 2) 2) 0)) (not ( = ( div  ( div  in4 2) 2) 1))) (not ( = in5 1)))  ( =  ( mod  in5 2) 0)) (not ( = ( div  in5 2) 1)))  ( =  ( mod  ( div  in5 2) 2) 0)) (not ( = ( div  ( div  in5 2) 2) 1))) (not ( = in6 1)))  ( =  ( mod  in6 2) 0)) (not ( = ( div  in6 2) 1)))  ( =  ( mod  ( div  in6 2) 2) 0)) (not ( = ( div  ( div  in6 2) 2) 1))) (not ( = in7 1)))  ( =  ( mod  in7 2) 0)) (not ( = ( div  in7 2) 1)))  ( =  ( mod  ( div  in7 2) 2) 0)) (not ( = ( div  ( div  in7 2) 2) 1))) (not ( = in8 1)))  ( =  ( mod  in8 2) 0)) (not ( = ( div  in8 2) 1)))  ( =  ( mod  ( div  in8 2) 2) 0)) (not ( = ( div  ( div  in8 2) 2) 1))) (not ( = in9 1)))  ( =  ( mod  in9 2) 0)) (not ( = ( div  in9 2) 1)))  ( =  ( mod  ( div  in9 2) 2) 0)) (not ( = ( div  ( div  in9 2) 2) 1))) (not ( = in10 1)))  ( =  ( mod  in10 2) 0)) (not ( = ( div  in10 2) 1)))  ( =  ( mod  ( div  in10 2) 2) 0)) (not ( = ( div  ( div  in10 2) 2) 1))) (not ( = in11 1)))  ( =  ( mod  in11 2) 0)) (not ( = ( div  in11 2) 1)))  ( =  ( mod  ( div  in11 2) 2) 0)) (not ( = ( div  ( div  in11 2) 2) 1))) (not ( = in12 1)))  ( =  ( mod  in12 2) 0)) (not ( = ( div  in12 2) 1)))  ( =  ( mod  ( div  in12 2) 2) 0)) (not ( = ( div  ( div  in12 2) 2) 1))) (not ( = in13 1)))  ( =  ( mod  in13 2) 0)) (not ( = ( div  in13 2) 1)))  ( =  ( mod  ( div  in13 2) 2) 0)) (not ( = ( div  ( div  in13 2) 2) 1))) (not ( = in14 1)))  ( =  ( mod  in14 2) 0)) (not ( = ( div  in14 2) 1)))  ( =  ( mod  ( div  in14 2) 2) 0)) (not ( = ( div  ( div  in14 2) 2) 1))) (not ( = in15 1)))  ( =  ( mod  in15 2) 0)) (not ( = ( div  in15 2) 1)))  ( =  ( mod  ( div  in15 2) 2) 0)) (not ( = ( div  ( div  in15 2) 2) 1))))

(check-sat)
(get-model)